(set-logic LIA)
(synth-fun f (
  (x0 Int)
  (x1 Int)
  (x2 Int)
  (x3 Int)
  (x4 Int)
  (x5 Int)
  (x6 Int)
  (x7 Int)
  (x8 Int)
  (x9 Int)
  (x10 Int)
  (x11 Int)
  (x12 Int)
  (x13 Int)
  (x14 Int)
  ) Int)
(declare-var x0 Int)
(declare-var x1 Int)
(declare-var x2 Int)
(declare-var x3 Int)
(declare-var x4 Int)
(declare-var x5 Int)
(declare-var x6 Int)
(declare-var x7 Int)
(declare-var x8 Int)
(declare-var x9 Int)
(declare-var x10 Int)
(declare-var x11 Int)
(declare-var x12 Int)
(declare-var x13 Int)
(declare-var x14 Int)

(constraint
        (and
            (>= (f x0 x1 x2 x3 x4 x5 x6 x7 x8 x9 x10 x11 x12 x13 x14) x0)
            (>= (f x0 x1 x2 x3 x4 x5 x6 x7 x8 x9 x10 x11 x12 x13 x14) x1)
            (>= (f x0 x1 x2 x3 x4 x5 x6 x7 x8 x9 x10 x11 x12 x13 x14) x2)
            (>= (f x0 x1 x2 x3 x4 x5 x6 x7 x8 x9 x10 x11 x12 x13 x14) x3)
            (>= (f x0 x1 x2 x3 x4 x5 x6 x7 x8 x9 x10 x11 x12 x13 x14) x4)
            (>= (f x0 x1 x2 x3 x4 x5 x6 x7 x8 x9 x10 x11 x12 x13 x14) x5)
            (>= (f x0 x1 x2 x3 x4 x5 x6 x7 x8 x9 x10 x11 x12 x13 x14) x6)
            (>= (f x0 x1 x2 x3 x4 x5 x6 x7 x8 x9 x10 x11 x12 x13 x14) x7)
            (>= (f x0 x1 x2 x3 x4 x5 x6 x7 x8 x9 x10 x11 x12 x13 x14) x8)
            (>= (f x0 x1 x2 x3 x4 x5 x6 x7 x8 x9 x10 x11 x12 x13 x14) x9)
            (>= (f x0 x1 x2 x3 x4 x5 x6 x7 x8 x9 x10 x11 x12 x13 x14) x10)
            (>= (f x0 x1 x2 x3 x4 x5 x6 x7 x8 x9 x10 x11 x12 x13 x14) x11)
            (>= (f x0 x1 x2 x3 x4 x5 x6 x7 x8 x9 x10 x11 x12 x13 x14) x12)
            (>= (f x0 x1 x2 x3 x4 x5 x6 x7 x8 x9 x10 x11 x12 x13 x14) x13)
            (>= (f x0 x1 x2 x3 x4 x5 x6 x7 x8 x9 x10 x11 x12 x13 x14) x14)
            (or
              (= (f x0 x1 x2 x3 x4 x5 x6 x7 x8 x9 x10 x11 x12 x13 x14) x0)
              (= (f x0 x1 x2 x3 x4 x5 x6 x7 x8 x9 x10 x11 x12 x13 x14) x1)
              (= (f x0 x1 x2 x3 x4 x5 x6 x7 x8 x9 x10 x11 x12 x13 x14) x2)
              (= (f x0 x1 x2 x3 x4 x5 x6 x7 x8 x9 x10 x11 x12 x13 x14) x3)
              (= (f x0 x1 x2 x3 x4 x5 x6 x7 x8 x9 x10 x11 x12 x13 x14) x4)
              (= (f x0 x1 x2 x3 x4 x5 x6 x7 x8 x9 x10 x11 x12 x13 x14) x5)
              (= (f x0 x1 x2 x3 x4 x5 x6 x7 x8 x9 x10 x11 x12 x13 x14) x6)
              (= (f x0 x1 x2 x3 x4 x5 x6 x7 x8 x9 x10 x11 x12 x13 x14) x7)
              (= (f x0 x1 x2 x3 x4 x5 x6 x7 x8 x9 x10 x11 x12 x13 x14) x8)
              (= (f x0 x1 x2 x3 x4 x5 x6 x7 x8 x9 x10 x11 x12 x13 x14) x9)
              (= (f x0 x1 x2 x3 x4 x5 x6 x7 x8 x9 x10 x11 x12 x13 x14) x10)
              (= (f x0 x1 x2 x3 x4 x5 x6 x7 x8 x9 x10 x11 x12 x13 x14) x11)
              (= (f x0 x1 x2 x3 x4 x5 x6 x7 x8 x9 x10 x11 x12 x13 x14) x12)
              (= (f x0 x1 x2 x3 x4 x5 x6 x7 x8 x9 x10 x11 x12 x13 x14) x13)
              (= (f x0 x1 x2 x3 x4 x5 x6 x7 x8 x9 x10 x11 x12 x13 x14) x14)
            )
))

(check-synth)